knapPI_6_1000_100000_537
n 1000
c 46150524
z 46150524
time 2.8
1,94700,94700,1
2,4056,4056,1
3,96763,96763,1
4,16341,16341,1
5,53558,53558,1
6,61664,61664,1
7,28312,28312,1
8,50000,50000,1
9,48426,48426,1
10,43425,43425,1
11,92871,92871,1
12,42244,42244,1
13,23915,23915,1
14,43574,43574,1
15,12719,12719,1
16,15277,15277,1
17,56078,56078,1
18,69324,69324,1
19,1295,1295,1
20,13470,13470,1
21,74263,74263,1
22,23556,23556,1
23,58139,58139,1
24,64271,64271,1
25,14925,14925,1
26,80299,80299,1
27,48842,48842,1
28,94644,94644,1
29,72892,72892,1
30,52234,52234,1
31,14088,14088,1
32,64755,64755,1
33,90275,90275,1
34,69280,69280,1
35,31488,31488,1
36,16461,16461,1
37,62577,62577,1
38,61955,61955,1
39,49872,49872,1
40,25765,25765,1
41,39027,39027,1
42,87774,87774,1
43,20454,20454,1
44,22204,22204,1
45,39277,39277,1
46,14025,14025,1
47,98036,98036,1
48,21237,21237,1
49,72927,72927,1
50,7652,7652,1
51,52539,52539,1
52,32007,32007,1
53,42752,42752,1
54,21505,21505,1
55,28130,28130,1
56,84900,84900,1
57,32208,32208,1
58,45747,45747,1
59,1892,1892,1
60,29831,29831,1
61,850,850,1
62,62361,62361,1
63,11208,11208,1
64,58457,58457,1
65,19405,19405,1
66,32493,32493,1
67,28827,28827,1
68,26510,26510,1
69,70184,70184,1
70,96036,96036,1
71,36341,36341,1
72,10574,10574,1
73,4082,4082,1
74,27896,27896,1
75,25631,25631,1
76,13551,13551,1
77,62607,62607,1
78,2498,2498,1
79,62347,62347,1
80,90507,90507,1
81,17368,17368,1
82,87250,87250,1
83,40383,40383,1
84,21501,21501,1
85,17920,17920,1
86,62399,62399,1
87,549,549,1
88,94406,94406,1
89,91359,91359,1
90,26684,26684,1
91,71368,71368,1
92,8850,8850,1
93,17604,17604,1
94,11984,11984,1
95,13877,13877,1
96,71288,71288,1
97,41502,41502,1
98,98380,98380,1
99,47945,47945,1
100,90333,90333,1
101,34142,34142,1
102,60819,60819,1
103,54547,54547,1
104,81275,81275,1
105,85271,85271,1
106,29896,29896,1
107,27748,27748,1
108,4653,4653,1
109,40125,40125,1
110,93486,93486,1
111,52144,52144,1
112,28487,28487,1
113,17753,17753,1
114,62204,62204,1
115,40706,40706,1
116,56787,56787,1
117,93913,93913,1
118,93989,93989,1
119,86859,86859,1
120,96046,96046,1
121,75166,75166,1
122,72263,72263,1
123,33764,33764,1
124,22081,22081,1
125,37483,37483,1
126,52005,52005,1
127,4595,4595,1
128,53742,53742,1
129,88,88,1
130,28511,28511,1
131,71360,71360,1
132,52798,52798,1
133,1288,1288,1
134,28349,28349,1
135,91360,91360,1
136,54789,54789,1
137,88615,88615,1
138,90705,90705,1
139,43242,43242,1
140,22638,22638,1
141,2085,2085,1
142,10044,10044,1
143,85447,85447,1
144,46184,46184,1
145,36794,36794,1
146,19129,19129,1
147,2906,2906,1
148,23911,23911,1
149,87072,87072,1
150,97684,97684,1
151,66556,66556,1
152,27399,27399,1
153,81404,81404,1
154,84769,84769,1
155,1214,1214,1
156,27441,27441,1
157,6268,6268,1
158,96837,96837,1
159,68832,68832,1
160,85964,85964,1
161,92204,92204,1
162,45898,45898,1
163,94142,94142,1
164,80529,80529,1
165,39328,39328,1
166,35690,35690,1
167,57980,57980,1
168,32464,32464,1
169,18416,18416,1
170,93967,93967,1
171,80050,80050,1
172,80877,80877,1
173,50900,50900,1
174,79049,79049,1
175,86845,86845,1
176,91815,91815,1
177,83679,83679,1
178,44860,44860,1
179,75426,75426,1
180,96291,96291,1
181,81833,81833,1
182,91497,91497,1
183,4639,4639,1
184,23919,23919,1
185,12278,12278,1
186,58023,58023,1
187,36692,36692,1
188,34345,34345,1
189,26708,26708,1
190,22322,22322,1
191,8420,8420,1
192,52595,52595,1
193,36388,36388,1
194,15847,15847,1
195,4016,4016,1
196,17585,17585,1
197,61536,61536,1
198,59738,59738,1
199,76099,76099,1
200,64041,64041,1
201,65384,65384,1
202,46553,46553,1
203,57537,57537,1
204,10556,10556,1
205,91691,91691,1
206,72418,72418,1
207,27866,27866,1
208,37418,37418,1
209,69663,69663,1
210,36136,36136,1
211,2435,2435,1
212,34171,34171,1
213,17833,17833,1
214,22398,22398,1
215,6728,6728,1
216,45344,45344,1
217,78554,78554,1
218,12804,12804,1
219,2171,2171,1
220,62043,62043,1
221,29761,29761,1
222,57667,57667,1
223,38153,38153,1
224,85797,85797,1
225,32749,32749,1
226,214,214,1
227,53805,53805,1
228,66468,66468,1
229,73525,73525,1
230,76693,76693,1
231,45248,45248,1
232,58129,58129,1
233,16390,16390,1
234,90122,90122,1
235,77911,77911,1
236,65843,65843,1
237,55975,55975,1
238,70903,70903,1
239,82122,82122,1
240,60759,60759,1
241,34633,34633,1
242,82257,82257,1
243,65376,65376,1
244,96568,96568,1
245,79394,79394,1
246,60218,60218,1
247,59908,59908,1
248,64960,64960,1
249,42310,42310,1
250,32725,32725,1
251,34304,34304,1
252,51061,51061,1
253,97818,97818,1
254,27743,27743,1
255,50679,50679,1
256,35623,35623,1
257,43661,43661,1
258,69965,69965,1
259,333,333,1
260,64756,64756,1
261,98011,98011,1
262,23026,23026,1
263,56886,56886,1
264,980,980,1
265,1441,1441,1
266,66400,66400,1
267,16614,16614,1
268,30753,30753,1
269,92254,92254,1
270,980,980,1
271,72019,72019,1
272,76944,76944,1
273,79981,79981,1
274,42803,42803,1
275,24143,24143,1
276,42326,42326,1
277,84023,84023,1
278,29586,29586,1
279,1377,1377,1
280,79151,79151,1
281,51721,51721,1
282,87944,87944,1
283,52744,52744,1
284,94545,94545,1
285,82755,82755,1
286,23239,23239,1
287,45639,45639,1
288,48756,48756,1
289,47760,47760,1
290,12029,12029,1
291,72509,72509,1
292,82597,82597,1
293,12283,12283,1
294,19337,19337,1
295,96007,96007,1
296,56973,56973,1
297,50359,50359,1
298,9190,9190,1
299,14600,14600,1
300,42654,42654,1
301,99338,99338,1
302,35201,35201,1
303,83741,83741,1
304,32574,32574,1
305,33695,33695,1
306,25043,25043,1
307,74236,74236,1
308,96063,96063,1
309,22975,22975,1
310,43329,43329,1
311,80652,80652,1
312,42129,42129,1
313,27980,27980,1
314,17463,17463,1
315,78376,78376,1
316,41558,41558,1
317,86692,86692,1
318,24779,24779,1
319,89827,89827,1
320,49099,49099,1
321,16707,16707,1
322,40533,40533,1
323,60892,60892,1
324,98488,98488,1
325,91723,91723,1
326,31903,31903,1
327,7000,7000,1
328,97231,97231,1
329,68470,68470,1
330,30952,30952,1
331,33429,33429,1
332,40231,40231,1
333,52732,52732,1
334,10826,10826,1
335,41438,41438,1
336,79044,79044,1
337,71187,71187,1
338,46433,46433,1
339,43098,43098,1
340,69,69,1
341,29204,29204,1
342,97084,97084,1
343,58186,58186,1
344,81019,81019,1
345,98472,98472,1
346,94147,94147,1
347,97781,97781,1
348,3322,3322,1
349,58484,58484,1
350,41894,41894,1
351,43155,43155,1
352,90172,90172,1
353,99255,99255,1
354,87969,87969,1
355,91223,91223,1
356,56148,56148,1
357,58643,58643,1
358,7982,7982,1
359,42812,42812,1
360,91784,91784,1
361,35041,35041,1
362,21986,21986,1
363,88080,88080,1
364,40756,40756,1
365,90493,90493,1
366,50474,50474,1
367,70709,70709,1
368,74303,74303,1
369,17693,17693,1
370,26110,26110,1
371,12252,12252,1
372,17285,17285,1
373,50550,50550,1
374,49679,49679,1
375,17753,17753,1
376,80611,80611,1
377,56470,56470,1
378,46712,46712,1
379,96591,96591,1
380,17175,17175,1
381,63270,63270,1
382,52451,52451,1
383,4793,4793,1
384,52605,52605,1
385,56453,56453,1
386,29062,29062,1
387,32595,32595,1
388,275,275,1
389,12777,12777,1
390,66214,66214,1
391,57764,57764,1
392,96545,96545,1
393,21265,21265,1
394,87931,87931,1
395,17371,17371,1
396,93927,93927,1
397,65001,65001,1
398,77210,77210,1
399,41125,41125,1
400,16357,16357,1
401,55770,55770,1
402,32963,32963,1
403,77147,77147,1
404,15344,15344,1
405,12154,12154,1
406,93565,93565,1
407,89932,89932,1
408,42738,42738,1
409,79045,79045,1
410,20569,20569,1
411,94305,94305,1
412,66846,66846,1
413,14314,14314,1
414,85758,85758,1
415,86599,86599,1
416,56003,56003,1
417,84361,84361,1
418,56237,56237,1
419,24858,24858,1
420,52156,52156,1
421,83364,83364,1
422,44856,44856,1
423,1918,1918,1
424,64583,64583,1
425,53045,53045,1
426,11105,11105,1
427,50064,50064,1
428,79249,79249,1
429,77884,77884,1
430,21894,21894,1
431,41859,41859,1
432,11877,11877,1
433,14631,14631,1
434,39566,39566,1
435,47740,47740,1
436,34612,34612,1
437,68233,68233,1
438,74825,74825,1
439,57064,57064,1
440,3159,3159,1
441,68291,68291,1
442,86225,86225,1
443,64317,64317,1
444,50583,50583,1
445,90354,90354,1
446,64414,64414,1
447,83525,83525,1
448,74089,74089,1
449,41141,41141,1
450,125,125,1
451,79368,79368,1
452,50088,50088,1
453,90640,90640,1
454,41496,41496,1
455,40192,40192,1
456,70259,70259,1
457,85031,85031,1
458,63896,63896,1
459,4738,4738,1
460,44240,44240,1
461,88961,88961,1
462,86396,86396,1
463,73341,73341,1
464,64901,64901,1
465,40807,40807,1
466,13357,13357,1
467,32999,32999,1
468,50176,50176,1
469,94324,94324,1
470,16208,16208,1
471,2338,2338,1
472,85253,85253,1
473,78086,78086,1
474,65439,65439,1
475,35818,35818,1
476,25133,25133,1
477,3819,3819,1
478,56423,56423,1
479,75237,75237,1
480,16236,16236,1
481,62826,62826,1
482,31789,31789,1
483,41893,41893,1
484,91141,91141,1
485,61275,61275,1
486,61196,61196,1
487,18538,18538,1
488,73714,73714,1
489,26869,26869,1
490,60224,60224,1
491,72990,72990,1
492,98597,98597,1
493,96245,96245,1
494,98098,98098,1
495,23536,23536,1
496,42501,42501,1
497,54701,54701,1
498,46613,46613,1
499,62623,62623,1
500,46001,46001,1
501,60486,60486,1
502,26529,26529,1
503,56921,56921,1
504,65869,65869,1
505,38761,38761,1
506,52913,52913,1
507,30644,30644,1
508,13544,13544,1
509,48996,48996,1
510,73015,73015,1
511,69311,69311,1
512,61432,61432,1
513,15429,15429,1
514,40587,40587,1
515,37700,37700,1
516,16831,16831,1
517,24146,24146,1
518,26030,26030,1
519,79997,79997,1
520,35025,35025,1
521,92389,92389,1
522,11598,11598,1
523,51111,51111,1
524,10101,10101,1
525,33568,33568,1
526,96486,96486,1
527,20846,20846,1
528,91131,91131,1
529,4775,4775,1
530,54885,54885,1
531,64887,64887,1
532,41361,41361,1
533,7268,7268,1
534,68622,68622,1
535,17408,17408,1
536,30315,30315,1
537,999,999,1
538,95042,95042,1
539,92590,92590,1
540,40159,40159,1
541,45472,45472,1
542,56060,56060,1
543,8108,8108,1
544,96694,96694,1
545,72903,72903,1
546,60473,60473,1
547,17650,17650,1
548,85937,85937,1
549,43920,43920,1
550,21939,21939,1
551,83783,83783,1
552,14919,14919,1
553,71264,71264,1
554,64158,64158,1
555,2745,2745,1
556,13378,13378,1
557,54587,54587,1
558,66700,66700,1
559,27313,27313,1
560,12022,12022,1
561,32344,32344,1
562,59993,59993,1
563,21939,21939,1
564,50765,50765,1
565,64426,64426,1
566,26719,26719,1
567,36835,36835,1
568,86862,86862,1
569,61006,61006,1
570,76295,76295,1
571,90938,90938,1
572,34915,34915,1
573,31639,31639,1
574,84749,84749,1
575,83560,83560,1
576,57556,57556,1
577,92826,92826,1
578,60300,60300,1
579,63175,63175,1
580,31263,31263,1
581,24209,24209,1
582,6481,6481,1
583,1862,1862,1
584,44355,44355,1
585,77239,77239,1
586,55500,55500,1
587,55297,55297,1
588,2405,2405,1
589,84048,84048,1
590,25605,25605,1
591,87253,87253,1
592,17123,17123,1
593,45419,45419,1
594,92560,92560,1
595,88751,88751,1
596,25181,25181,1
597,20743,20743,1
598,71896,71896,1
599,18251,18251,1
600,15722,15722,1
601,69895,69895,1
602,55418,55418,1
603,66889,66889,1
604,28127,28127,1
605,44458,44458,1
606,63766,63766,1
607,30220,30220,1
608,24171,24171,1
609,83963,83963,1
610,59038,59038,1
611,60600,60600,1
612,71098,71098,1
613,98478,98478,1
614,10234,10234,1
615,65098,65098,1
616,65822,65822,1
617,49523,49523,1
618,66474,66474,1
619,22188,22188,1
620,2796,2796,1
621,29117,29117,1
622,37367,37367,1
623,77208,77208,1
624,73074,73074,1
625,73442,73442,1
626,77146,77146,1
627,63800,63800,1
628,23323,23323,1
629,57581,57581,1
630,55847,55847,1
631,54070,54070,1
632,33096,33096,1
633,45191,45191,1
634,49793,49793,1
635,88530,88530,1
636,69131,69131,1
637,13886,13886,1
638,73990,73990,1
639,90561,90561,1
640,17839,17839,1
641,28206,28206,1
642,8955,8955,1
643,72905,72905,1
644,36593,36593,1
645,31699,31699,1
646,93879,93879,1
647,68659,68659,1
648,87749,87749,1
649,24661,24661,1
650,32559,32559,1
651,41864,41864,1
652,35566,35566,1
653,5138,5138,1
654,58304,58304,1
655,30597,30597,1
656,72550,72550,1
657,22546,22546,1
658,80790,80790,1
659,7885,7885,1
660,15654,15654,1
661,92721,92721,1
662,1911,1911,1
663,41885,41885,1
664,55387,55387,1
665,87534,87534,1
666,35143,35143,1
667,1009,1009,1
668,74372,74372,1
669,71712,71712,1
670,74341,74341,1
671,44032,44032,1
672,21656,21656,1
673,58248,58248,1
674,60271,60271,1
675,39743,39743,1
676,51568,51568,1
677,60781,60781,1
678,8568,8568,1
679,57183,57183,1
680,66212,66212,1
681,71464,71464,1
682,24867,24867,1
683,59420,59420,1
684,22371,22371,1
685,8375,8375,1
686,6591,6591,1
687,39407,39407,1
688,56883,56883,1
689,27217,27217,1
690,80310,80310,1
691,58579,58579,1
692,2367,2367,1
693,39301,39301,1
694,67400,67400,1
695,87172,87172,1
696,28744,28744,1
697,68606,68606,1
698,63327,63327,1
699,78774,78774,1
700,31492,31492,1
701,12662,12662,1
702,39921,39921,1
703,73602,73602,1
704,41324,41324,1
705,44524,44524,1
706,72443,72443,1
707,36612,36612,1
708,31466,31466,1
709,18672,18672,1
710,35695,35695,1
711,60890,60890,1
712,7561,7561,1
713,4386,4386,1
714,59399,59399,1
715,86269,86269,1
716,73847,73847,1
717,4191,4191,1
718,96499,96499,1
719,80999,80999,1
720,74294,74294,1
721,16221,16221,1
722,91601,91601,1
723,92646,92646,1
724,15986,15986,1
725,40923,40923,1
726,83260,83260,1
727,38824,38824,1
728,9013,9013,1
729,8250,8250,1
730,87026,87026,1
731,83728,83728,1
732,20337,20337,1
733,61567,61567,1
734,99402,99402,1
735,57191,57191,1
736,96511,96511,1
737,76884,76884,1
738,45093,45093,1
739,11604,11604,1
740,4712,4712,1
741,91983,91983,1
742,88316,88316,1
743,91242,91242,1
744,58547,58547,1
745,24378,24378,1
746,34577,34577,1
747,49404,49404,1
748,84381,84381,1
749,1700,1700,1
750,45831,45831,1
751,55244,55244,1
752,17972,17972,1
753,48031,48031,1
754,90403,90403,1
755,85664,85664,1
756,1824,1824,1
757,30194,30194,1
758,69656,69656,1
759,93181,93181,1
760,74664,74664,1
761,98822,98822,1
762,94940,94940,1
763,97571,97571,1
764,64164,64164,1
765,64115,64115,1
766,70881,70881,1
767,16184,16184,1
768,29067,29067,1
769,41512,41512,1
770,7177,7177,1
771,89062,89062,1
772,49092,49092,1
773,87123,87123,1
774,737,737,1
775,13507,13507,1
776,9447,9447,1
777,52535,52535,1
778,28861,28861,1
779,82252,82252,1
780,73974,73974,1
781,30321,30321,1
782,57471,57471,1
783,16022,16022,1
784,22628,22628,1
785,15397,15397,1
786,45949,45949,1
787,32424,32424,1
788,84607,84607,1
789,28049,28049,1
790,34600,34600,1
791,79553,79553,1
792,8361,8361,1
793,87678,87678,1
794,34290,34290,1
795,99383,99383,1
796,97600,97600,1
797,44220,44220,1
798,81619,81619,1
799,7818,7818,1
800,63678,63678,1
801,46211,46211,1
802,97069,97069,1
803,29378,29378,1
804,12652,12652,1
805,35641,35641,1
806,84521,84521,1
807,81992,81992,1
808,49156,49156,1
809,35438,35438,1
810,15659,15659,1
811,32439,32439,1
812,52837,52837,1
813,3821,3821,1
814,25023,25023,1
815,86772,86772,1
816,58608,58608,1
817,23598,23598,1
818,44944,44944,1
819,60723,60723,1
820,32355,32355,1
821,11666,11666,1
822,43904,43904,1
823,77363,77363,1
824,58420,58420,1
825,91158,91158,1
826,98479,98479,1
827,21847,21847,1
828,59276,59276,1
829,92576,92576,1
830,96152,96152,1
831,28008,28008,1
832,86883,86883,1
833,44710,44710,1
834,97447,97447,1
835,27656,27656,1
836,42984,42984,1
837,57229,57229,1
838,44157,44157,1
839,98180,98180,1
840,97461,97461,1
841,5797,5797,1
842,92673,92673,1
843,18733,18733,1
844,30226,30226,1
845,7682,7682,1
846,70043,70043,1
847,26903,26903,1
848,58240,58240,1
849,85441,85441,1
850,25838,25838,1
851,70360,70360,1
852,73886,73886,1
853,79039,79039,1
854,21153,21153,1
855,3528,3528,1
856,23719,23719,1
857,81444,81444,1
858,6932,6932,1
859,92109,92109,1
860,2477,2477,1
861,78570,78570,1
862,74635,74635,1
863,10324,10324,1
864,55443,55443,1
865,90521,90521,1
866,40323,40323,1
867,7552,7552,1
868,73933,73933,1
869,65441,65441,1
870,59116,59116,1
871,46989,46989,1
872,69682,69682,1
873,6182,6182,1
874,51126,51126,1
875,47907,47907,1
876,93606,93606,1
877,35734,35734,1
878,13973,13973,1
879,19546,19546,1
880,73302,73302,1
881,70361,70361,1
882,33364,33364,1
883,19132,19132,1
884,99681,99681,1
885,17770,17770,1
886,58963,58963,1
887,51036,51036,1
888,65690,65690,1
889,68634,68634,1
890,26627,26627,1
891,34425,34425,1
892,4197,4197,1
893,18453,18453,1
894,15511,15511,1
895,64950,64950,1
896,83852,83852,1
897,51308,51308,1
898,84940,84940,1
899,60034,60034,1
900,92505,92505,1
901,89772,89772,1
902,16276,16276,1
903,92947,92947,1
904,48321,48321,1
905,40626,40626,1
906,89855,89855,1
907,53345,53345,1
908,17094,17094,1
909,3827,3827,1
910,21925,21925,1
911,79580,79580,1
912,7336,7336,1
913,84280,84280,1
914,45490,45490,1
915,28274,28274,1
916,1096,1096,1
917,70274,70274,1
918,93710,93710,1
919,45776,45776,1
920,65425,65425,1
921,35557,35557,1
922,82209,82209,1
923,25046,25046,1
924,48246,48246,1
925,1251,1251,1
926,95411,95411,1
927,95314,95314,1
928,2543,2543,1
929,85141,85141,1
930,89150,89150,1
931,44675,44675,1
932,78727,78727,1
933,65608,65608,1
934,29651,29651,1
935,73029,73029,1
936,76490,76490,1
937,18893,18893,1
938,8350,8350,1
939,10418,10418,1
940,4430,4430,1
941,55043,55043,1
942,20850,20850,1
943,89632,89632,1
944,24113,24113,1
945,70231,70231,1
946,84367,84367,1
947,32915,32915,1
948,71715,71715,1
949,31682,31682,1
950,14570,14570,1
951,250,250,1
952,51301,51301,1
953,24558,24558,1
954,28725,28725,1
955,6819,6819,1
956,41280,41280,1
957,84959,84959,1
958,16619,16619,1
959,6996,6996,1
960,90716,90716,1
961,90617,90617,1
962,15544,15544,1
963,1332,1332,1
964,31581,31581,1
965,7969,7969,1
966,12291,12291,1
967,86317,86317,1
968,62116,62116,1
969,36452,36452,1
970,82242,82242,1
971,43850,43850,1
972,93465,93465,1
973,57812,57812,1
974,75025,75025,1
975,25378,25378,1
976,24827,24827,1
977,30081,30081,1
978,26185,26185,1
979,77333,77333,1
980,27271,27271,1
981,40062,40062,1
982,77985,77985,1
983,35092,35092,1
984,57795,57795,1
985,81151,81151,1
986,86550,86550,1
987,35573,35573,1
988,78986,78986,1
989,29083,29083,1
990,18333,18333,1
991,44020,44020,1
992,88818,88818,1
993,20383,20383,1
994,91959,91959,1
995,78794,78794,1
996,73750,73750,1
997,38003,38003,1
998,36475,36475,1
999,58888,58888,1
1000,4713,4713,1
